6 2
1595 1631 216 1379 1648 414
0 827 377 1729 1727 750 1437
289 0 169 1287 1643 1371 1813
995 310 0 1337 837 1399 1334
1858 270 21 0 685 1389 179
745 21 580 1231 0 1203 776
1077 1662 1967 1914 962 0 1033
1552 455 1384 1325 1835 1989 0